set S := 1 2;
set K[1] := P1 P2;
set K[2] := P2 P3;
param T := 6;
param h : 
    P1 P2 P3 :=
1    8  5  .
2    .  5  6 ;
param co :
    1  2  3  4  5  6 := 
1  10 10 10 10 10 10
2  10 10 10 10 10 10 ;
param d :=
[1,*,*]:
    1   2   3   4   5   6  :=
P1 130 100  50 160 150  90 
P2  80 120 220 140  90 110  
P3   .   .   .   .   .   .
[2,*,*]:
    1   2   3   4   5   6  :=
P1   .   .   .   .   .   . 
P2  90 110 210 150 120 100  
P3  80 120 210 150  90 110 ;
param tb : 
    P1   P2  P3 :=
1   1.0 0.5   .
2    .  0.5 0.8 ;
param ta : 
    P1   P2  P3 :=
1   0.5 1.0   .
2    .  1.0 0.8 ;
param b :
    1   2   3   4   5   6  := 
1  300 300 300 300 300 300
2  300 300 300 300 300 300 ;
param n :
    1   2   3   4   5   6  := 
1  250 250 250 250 250 250
2  250 250 250 250 250 250 ;
param Omax :
    1   2   3   4   5   6  := 
1  100 100 100 100 100 100
2  100 100 100 100 100 100 ;
param y0 : 
    P1 P2 P3 :=
1   20  0  .
2    .  0 20 ;

end;
